36757 36312 
37260 36098 
35987 36568 
36672 36383 
40591 34233 
41048 33857 
35902 36639 
36563 36418 
37893 35869 
38339 35636 
38088 35719 
40687 34178 
37751 35921 
37325 36073 
37176 36129 
37503 36020 
36989 36205 
40061 34561 
40241 34411 
35246 36831 
39285 35177 
39586 34980 
39857 34716 
38700 35456 
38785 35385 
38998 35265 
38971 35283 
38395 35589 
39939 34671 
38040 35761 
